benchmarks_vrp/CMT2/no_cluster/CMT2_5.vrp
NAME: CMT2_5
TYPE: CVRP
COMMENT: 835.26 - Cluster Nr.5
DIMENSION: 12
CAPACITY: 140
EDGE_WEIGHT_TYPE: EUC_2D
NODE_COORD_TYPE: TWOD_COORDS
NODE_COORD_SECTION: 
3 66 14
1 52 26
9 60 15
7 54 10
10 55 20
2 50 4
11 59 5
6 40 40
4 62 24
5 66 8
8 64 4
12 65 27
DEPOT_SECTION: 
6
-1
DEMAND_SECTION: 
1 13
4 8
12 14
11 3
8 13
9 14
5 11
10 21
3 22
7 12
2 8
6 0
EOF
