benchmarks_vrp/CMT2/no_cluster/CMT2_5.tour
NAME: CMT2_5 solution
TYPE: TOUR
TOUR_SECTION:
6 1 10 7 2 11 8 5 3 9 4 12 -1
-1
EOF